c 
c G(k,n,p) graph
c graph gen seed     : 755
c number of vertices : 25
c max number of edges: 500
c number of classes  : 2
c edge density       : 0.400000
c edge probability   : 0.800000
c data structure     : sparse
c
c           Graph Stats
c number of vertices  : 25
c nonisolated vertices: 25
c number of edges     : 127
c edge density        : 0.423333
c max degree          : 14
c avg degree          : 10.16
c min degree          : 6
p col 25 127
e 1 2
e 1 3
e 1 6
e 1 7
e 1 8
e 1 11
e 1 12
e 1 13
e 1 15
e 1 17
e 1 18
e 1 19
e 1 20
e 1 22
e 1 23
e 1 24
e 2 3
e 2 6
e 2 7
e 2 8
e 2 11
e 2 12
e 2 13
e 2 14
e 2 15
e 2 16
e 2 17
e 2 18
e 2 20
e 2 23
e 3 4
e 3 6
e 3 7
e 3 8
e 3 11
e 3 12
e 3 13
e 3 15
e 3 17
e 3 18
e 3 20
e 3 23
e 3 24
e 4 5
e 4 9
e 4 10
e 4 14
e 4 16
e 4 19
e 4 20
e 4 21
e 4 22
e 4 23
e 4 24
e 4 25
e 5 9
e 5 10
e 5 14
e 5 16
e 5 19
e 5 21
e 5 22
e 5 24
e 5 25
e 6 7
e 6 8
e 6 11
e 6 12
e 6 13
e 6 15
e 6 17
e 6 18
e 6 20
e 6 23
e 6 24
e 7 8
e 7 11
e 7 12
e 7 13
e 7 15
e 7 16
e 7 17
e 7 18
e 7 20
e 7 23
e 8 11
e 8 12
e 8 13
e 8 15
e 8 17
e 8 18
e 8 20
e 8 21
e 8 23
e 9 10
e 9 11
e 9 13
e 9 14
e 9 15
e 9 16
e 9 18
e 9 19
e 9 21
e 9 22
e 9 24
e 9 25
e 10 13
e 10 14
e 10 16
e 10 19
e 10 21
e 10 22
e 10 23
e 10 24
e 10 25
e 11 12
e 11 13
e 11 14
e 11 15
e 11 17
e 11 18
e 11 20
e 11 23
e 11 24
e 12 13
e 12 15
e 12 17
e 12 18
e 12 20
e 12 23
e 13 15
e 13 17
e 13 18
e 13 20
e 13 23
e 14 15
e 14 16
e 14 19
e 14 21
e 14 22
e 14 23
e 14 24
e 14 25
e 15 17
e 15 18
e 15 19
e 15 20
e 15 21
e 15 23
e 15 24
e 16 19
e 16 21
e 16 22
e 16 24
e 16 25
e 17 18
e 17 19
e 17 20
e 17 21
e 17 23
e 18 20
e 18 23
e 19 21
e 19 22
e 19 24
e 19 25
e 20 23
e 21 22
e 21 24
e 21 25
e 22 24
e 22 25
e 24 25
